(declare-rel loop ((Array Int Int) (Array Int Int) (Array Int Int) (Array Int Int) (Array Int Int) Int Int ))
(declare-rel exit ())
(declare-var i Int )
(declare-var i1 Int )
(declare-var i2 Int )
(declare-var i3 Int )
(declare-var i4 Int )
(declare-var i5 Int )
(declare-var i6 Int )
(declare-var i7 Int )
(declare-var i8 Int )
(declare-var index_limit Int )
(declare-var a_i Int )
(declare-var a_i1 Int )
(declare-var a_i2 Int )
(declare-var a_i3 Int )
(declare-var a_i4 Int )
(declare-var a_i5 Int )
(declare-var a_i6 Int )
(declare-var a_i7 Int )
(declare-var a_i8 Int )
(declare-var a_i9 Int )
(declare-var a_i10 Int )
(declare-var a_i11 Int )
(declare-var a_i12 Int )
(declare-var a_i13 Int )
(declare-var a_i14 Int )
(declare-var a_i15 Int )
(declare-var a_i_plus_1 Int )
(declare-var a_i_plus_11 Int )
(declare-var a_i_plus_12 Int )
(declare-var a_i_plus_13 Int )
(declare-var a_i_plus_14 Int )
(declare-var a_i_plus_15 Int )
(declare-var a_i_plus_16 Int )
(declare-var a_i_plus_17 Int )
(declare-var b_i Int )
(declare-var b_i1 Int )
(declare-var b_i2 Int )
(declare-var b_i3 Int )
(declare-var b_i4 Int )
(declare-var b_i5 Int )
(declare-var b_i6 Int )
(declare-var b_i7 Int )
(declare-var b_i8 Int )
(declare-var b_i9 Int )
(declare-var b_i10 Int )
(declare-var b_i11 Int )
(declare-var b_i12 Int )
(declare-var b_i13 Int )
(declare-var b_i14 Int )
(declare-var b_i15 Int )
(declare-var c_i Int )
(declare-var c_i1 Int )
(declare-var c_i2 Int )
(declare-var c_i3 Int )
(declare-var c_i4 Int )
(declare-var c_i5 Int )
(declare-var c_i6 Int )
(declare-var c_i7 Int )
(declare-var d_i Int )
(declare-var d_i1 Int )
(declare-var d_i2 Int )
(declare-var d_i3 Int )
(declare-var d_i4 Int )
(declare-var d_i5 Int )
(declare-var d_i6 Int )
(declare-var d_i7 Int )
(declare-var e_i Int )
(declare-var e_i1 Int )
(declare-var e_i2 Int )
(declare-var e_i3 Int )
(declare-var e_i4 Int )
(declare-var e_i5 Int )
(declare-var e_i6 Int )
(declare-var e_i7 Int )
(declare-var count Int )
(declare-var a_array (Array Int Int) )
(declare-var a_array1 (Array Int Int) )
(declare-var a_array2 (Array Int Int) )
(declare-var a_array3 (Array Int Int) )
(declare-var a_array4 (Array Int Int) )
(declare-var a_array5 (Array Int Int) )
(declare-var a_array6 (Array Int Int) )
(declare-var a_array7 (Array Int Int) )
(declare-var a_array8 (Array Int Int) )
(declare-var a_array9 (Array Int Int) )
(declare-var a_array10 (Array Int Int) )
(declare-var a_array11 (Array Int Int) )
(declare-var a_array12 (Array Int Int) )
(declare-var a_array13 (Array Int Int) )
(declare-var a_array14 (Array Int Int) )
(declare-var a_array15 (Array Int Int) )
(declare-var a_array16 (Array Int Int) )
(declare-var b_array (Array Int Int) )
(declare-var b_array1 (Array Int Int) )
(declare-var b_array2 (Array Int Int) )
(declare-var b_array3 (Array Int Int) )
(declare-var b_array4 (Array Int Int) )
(declare-var b_array5 (Array Int Int) )
(declare-var b_array6 (Array Int Int) )
(declare-var b_array7 (Array Int Int) )
(declare-var b_array8 (Array Int Int) )
(declare-var b_array9 (Array Int Int) )
(declare-var b_array10 (Array Int Int) )
(declare-var b_array11 (Array Int Int) )
(declare-var b_array12 (Array Int Int) )
(declare-var b_array13 (Array Int Int) )
(declare-var b_array14 (Array Int Int) )
(declare-var b_array15 (Array Int Int) )
(declare-var b_array16 (Array Int Int) )
(declare-var c_array (Array Int Int) )
(declare-var d_array (Array Int Int) )
(declare-var e_array (Array Int Int) )

(rule (=> 
	(and 
		(= index_limit (- (* count 8) 1))
		(= i 0)

		(= b_i (select b_array i))
		(= c_i (select c_array i))
		(= d_i (select d_array i))
		(= e_i (select e_array i))
		(= a_i (+ b_i (* c_i d_i)))
		(= a_array1 (store a_array i a_i))
		(= a_i_plus_1 (select a_array1 (+ i 1)))
		(= b_i1 (+ a_i (* d_i e_i)))
		(= b_array1 (store b_array i b_i1))
		(= a_i1 (+ b_i1 (* a_i_plus_1 d_i)))
		(= a_array2 (store a_array1 i a_i1))
		(= i1 (+ i 1))

		(= b_i2 (select b_array1 i1))
		(= c_i1 (select c_array i1))
		(= d_i1 (select d_array i1))
		(= e_i1 (select e_array i1))
		(= a_i2 (+ b_i2 (* c_i1 d_i1)))
		(= a_array3 (store a_array2 i1 a_i2))
		(= a_i_plus_11 (select a_array3 (+ i1 1)))
		(= b_i3 (+ a_i2 (* d_i1 e_i1)))
		(= b_array2 (store b_array1 i1 b_i3))
		(= a_i3 (+ b_i3 (* a_i_plus_11 d_i1)))
		(= a_array4 (store a_array3 i1 a_i3))
		(= i2 (+ i1 1))

		(= b_i4 (select b_array2 i2))
		(= c_i2 (select c_array i2))
		(= d_i2 (select d_array i2))
		(= e_i2 (select e_array i2))
		(= a_i4 (+ b_i4 (* c_i2 d_i2)))
		(= a_array5 (store a_array4 i2 a_i4))
		(= a_i_plus_12 (select a_array5 (+ i2 1)))
		(= b_i5 (+ a_i4 (* d_i2 e_i2)))
		(= b_array3 (store b_array2 i2 b_i5))
		(= a_i5 (+ b_i5 (* a_i_plus_12 d_i2)))
		(= a_array6 (store a_array5 i a_i5))
		(= i3 (+ i2 1))

		(= b_i6 (select b_array3 i3))
		(= c_i3 (select c_array i3))
		(= d_i3 (select d_array i3))
		(= e_i3 (select e_array i3))
		(= a_i6 (+ b_i6 (* c_i3 d_i3)))
		(= a_array7 (store a_array6 i3 a_i6))
		(= a_i_plus_13 (select a_array7 (+ i3 1)))
		(= b_i7 (+ a_i6 (* d_i3 e_i3)))
		(= b_array4 (store b_array3 i3 b_i7))
		(= a_i7 (+ b_i7 (* a_i_plus_13 d_i3)))
		(= a_array8 (store a_array7 i3 a_i7))
		(= i4 (+ i3 1))

		(= b_i8 (select b_array4 i4))
		(= c_i4 (select c_array i4))
		(= d_i4 (select d_array i4))
		(= e_i4 (select e_array i4))
		(= a_i8 (+ b_i8 (* c_i4 d_i4)))
		(= a_array9 (store a_array8 i4 a_i8))
		(= a_i_plus_14 (select a_array9 (+ i4 1)))
		(= b_i9 (+ a_i8 (* d_i4 e_i4)))
		(= b_array5 (store b_array4 i4 b_i9))
		(= a_i9 (+ b_i9 (* a_i_plus_14 d_i4)))
		(= a_array10 (store a_array9 i4 a_i9))
		(= i5 (+ i4 1))

		(= b_i10 (select b_array5 i5))
		(= c_i5 (select c_array i5))
		(= d_i5 (select d_array i5))
		(= e_i5 (select e_array i5))
		(= a_i10 (+ b_i10 (* c_i5 d_i5)))
		(= a_array11 (store a_array10 i5 a_i10))
		(= a_i_plus_15 (select a_array11 (+ i5 1)))
		(= b_i11 (+ a_i10 (* d_i5 e_i5)))
		(= b_array6 (store b_array5 i5 b_i11))
		(= a_i11 (+ b_i11 (* a_i_plus_15 d_i5)))
		(= a_array12 (store a_array11 i5 a_i11))
		(= i6 (+ i5 1))

		(= b_i12 (select b_array6 i6))
		(= c_i6 (select c_array i6))
		(= d_i6 (select d_array i6))
		(= e_i6 (select e_array i6))
		(= a_i12 (+ b_i12 (* c_i6 d_i6)))
		(= a_array13 (store a_array12 i6 a_i12))
		(= a_i_plus_16 (select a_array13 (+ i6 1)))
		(= b_i13 (+ a_i12 (* d_i6 e_i6)))
		(= b_array7 (store b_array6 i6 b_i13))
		(= a_i13 (+ b_i13 (* a_i_plus_16 d_i6)))
		(= a_array14 (store a_array13 i6 a_i13))
		(= i7 (+ i6 1))
	)
	(loop a_array14 b_array7 c_array d_array e_array i7 count)
))
(rule (=> 
	(and 
		(loop a_array b_array c_array d_array e_array i count)

		(= index_limit (- (* count 8) 1))
		(< i index_limit)
		
		(= b_i (select b_array i))
		(= c_i (select c_array i))
		(= d_i (select d_array i))
		(= e_i (select e_array i))
		(= a_i (+ b_i (* c_i d_i)))
		(= a_array1 (store a_array i a_i))
		(= a_i_plus_1 (select a_array1 (+ i 1)))
		(= b_i1 (+ a_i (* d_i e_i)))
		(= b_array1 (store b_array i b_i1))
		(= a_i1 (+ b_i1 (* a_i_plus_1 d_i)))
		(= a_array2 (store a_array1 i a_i1))
		(= i1 (+ i 1))

		(= b_i2 (select b_array1 i1))
		(= c_i1 (select c_array i1))
		(= d_i1 (select d_array i1))
		(= e_i1 (select e_array i1))
		(= a_i2 (+ b_i2 (* c_i1 d_i1)))
		(= a_array3 (store a_array2 i1 a_i2))
		(= a_i_plus_11 (select a_array3 (+ i1 1)))
		(= b_i3 (+ a_i2 (* d_i1 e_i1)))
		(= b_array2 (store b_array1 i1 b_i3))
		(= a_i3 (+ b_i3 (* a_i_plus_11 d_i1)))
		(= a_array4 (store a_array3 i1 a_i3))
		(= i2 (+ i1 1))

		(= b_i4 (select b_array2 i2))
		(= c_i2 (select c_array i2))
		(= d_i2 (select d_array i2))
		(= e_i2 (select e_array i2))
		(= a_i4 (+ b_i4 (* c_i2 d_i2)))
		(= a_array5 (store a_array4 i2 a_i4))
		(= a_i_plus_12 (select a_array5 (+ i2 1)))
		(= b_i5 (+ a_i4 (* d_i2 e_i2)))
		(= b_array3 (store b_array2 i2 b_i5))
		(= a_i5 (+ b_i5 (* a_i_plus_12 d_i2)))
		(= a_array6 (store a_array5 i a_i5))
		(= i3 (+ i2 1))

		(= b_i6 (select b_array3 i3))
		(= c_i3 (select c_array i3))
		(= d_i3 (select d_array i3))
		(= e_i3 (select e_array i3))
		(= a_i6 (+ b_i6 (* c_i3 d_i3)))
		(= a_array7 (store a_array6 i3 a_i6))
		(= a_i_plus_13 (select a_array7 (+ i3 1)))
		(= b_i7 (+ a_i6 (* d_i3 e_i3)))
		(= b_array4 (store b_array3 i3 b_i7))
		(= a_i7 (+ b_i7 (* a_i_plus_13 d_i3)))
		(= a_array8 (store a_array7 i3 a_i7))
		(= i4 (+ i3 1))

		(= b_i8 (select b_array4 i4))
		(= c_i4 (select c_array i4))
		(= d_i4 (select d_array i4))
		(= e_i4 (select e_array i4))
		(= a_i8 (+ b_i8 (* c_i4 d_i4)))
		(= a_array9 (store a_array8 i4 a_i8))
		(= a_i_plus_14 (select a_array9 (+ i4 1)))
		(= b_i9 (+ a_i8 (* d_i4 e_i4)))
		(= b_array5 (store b_array4 i4 b_i9))
		(= a_i9 (+ b_i9 (* a_i_plus_14 d_i4)))
		(= a_array10 (store a_array9 i4 a_i9))
		(= i5 (+ i4 1))

		(= b_i10 (select b_array5 i5))
		(= c_i5 (select c_array i5))
		(= d_i5 (select d_array i5))
		(= e_i5 (select e_array i5))
		(= a_i10 (+ b_i10 (* c_i5 d_i5)))
		(= a_array11 (store a_array10 i5 a_i10))
		(= a_i_plus_15 (select a_array11 (+ i5 1)))
		(= b_i11 (+ a_i10 (* d_i5 e_i5)))
		(= b_array6 (store b_array5 i5 b_i11))
		(= a_i11 (+ b_i11 (* a_i_plus_15 d_i5)))
		(= a_array12 (store a_array11 i5 a_i11))
		(= i6 (+ i5 1))

		(= b_i12 (select b_array6 i6))
		(= c_i6 (select c_array i6))
		(= d_i6 (select d_array i6))
		(= e_i6 (select e_array i6))
		(= a_i12 (+ b_i12 (* c_i6 d_i6)))
		(= a_array13 (store a_array12 i6 a_i12))
		(= a_i_plus_16 (select a_array13 (+ i6 1)))
		(= b_i13 (+ a_i12 (* d_i6 e_i6)))
		(= b_array7 (store b_array6 i6 b_i13))
		(= a_i13 (+ b_i13 (* a_i_plus_16 d_i6)))
		(= a_array14 (store a_array13 i6 a_i13))
		(= i7 (+ i6 1))

		(= b_i14 (select b_array7 i7))
		(= c_i7 (select c_array i7))
		(= d_i7 (select d_array i7))
		(= e_i7 (select e_array i7))
		(= a_i14 (+ b_i14 (* c_i7 d_i7)))
		(= a_array15 (store a_array14 i7 a_i14))
		(= a_i_plus_17 (select a_array15 (+ i7 1)))
		(= b_i15 (+ a_i14 (* d_i7 e_i7)))
		(= b_array8 (store b_array7 i7 b_i15))
		(= a_i15 (+ b_i15 (* a_i_plus_17 d_i7)))
		(= a_array16 (store a_array15 i7 a_i15))
		(= i8 (+ i7 1))
	)
	(loop a_array16 b_array8 c_array d_array e_array i8 count)
))
(rule (=> 
	(and 
		(loop a_array b_array c_array d_array e_array i count)
		(= index_limit (- (* count 8) 1))
		(not (< i index_limit))
	)
	exit
))
(query exit)